# Solution for model r5_t18_m7_6 Batch Number: 2
# Finished Task: 18 / 18
# Makespan: 586.0, Total Distance: 368.0, Total Time: 1.8163
# R O S F Batch
0 0 -1 0.0 0.0 -1
1 1 8 0.0 0.0 -1
2 2 6 0.0 0.0 -1
3 3 17 0.0 0.0 -1
4 4 9 0.0 0.0 -1
5 3 -1 564.0 586.0 1
6 2 10 307.0 332.0 0
7 3 12 367.0 405.0 0
8 1 22 293.0 314.0 0
9 4 15 283.0 307.0 0
10 2 14 356.0 386.0 0
11 1 19 478.0 498.0 1
12 3 18 405.0 433.0 1
13 4 -1 485.0 522.0 1
14 2 -1 485.0 515.0 1
15 4 16 361.0 392.0 0
16 4 21 423.0 446.0 0
17 3 7 307.0 336.0 0
18 3 20 454.0 484.0 1
19 1 -1 556.0 586.0 1
20 3 5 506.0 542.0 1
21 4 13 455.0 485.0 0
22 1 11 376.0 405.0 1
